
List of user-set options:

                                    Name   Value                used
                        file_print_level = 5                     yes
                   hessian_approximation = limited-memory        yes
                           linear_solver = mumps                 yes
                                max_iter = 120                   yes
                      nlp_scaling_method = user-scaling          yes
                             output_file = /Users/marcello/Documents/zhaw/BAZL/DRACONIAN/Dymos/terrain_traj_v5_out/IPOPT.out  yes
                             print_level = 5                     yes
                      print_user_options = yes                   yes
                                      sb = yes                   yes
This is Ipopt version 3.14.19, running with linear solver MUMPS 5.8.2.

Number of nonzeros in equality constraint Jacobian...:    11904
Number of nonzeros in inequality constraint Jacobian.:     3825
Number of nonzeros in Lagrangian Hessian.............:        0

Total number of variables............................:      208
                     variables with only lower bounds:       30
                variables with lower and upper bounds:      122
                     variables with only upper bounds:        0
Total number of equality constraints.................:      162
Total number of inequality constraints...............:       45
        inequality constraints with only lower bounds:        0
   inequality constraints with lower and upper bounds:       45
        inequality constraints with only upper bounds:        0

iter    objective    inf_pr   inf_du lg(mu)  ||d||  lg(rg) alpha_du alpha_pr  ls
   0  5.0699999e-01 1.68e+01 8.01e-02   0.0 0.00e+00    -  0.00e+00 0.00e+00   0
   1  1.0287524e+00 4.73e+00 1.50e+02   0.8 4.33e+01    -  8.54e-03 2.63e-01f  1
   2  1.1607213e+00 3.50e+00 5.71e+03   0.6 1.26e+01    -  4.32e-01 1.49e-01f  1
   3  1.6666411e+00 7.20e-01 8.45e+03   0.8 1.05e+01    -  3.04e-01 7.35e-01f  1
   4  1.8197264e+00 4.99e-01 3.18e+03   1.5 1.29e+01    -  1.00e+00 3.77e-01f  1
   5  2.2225970e+00 5.17e-01 4.66e+02   1.4 1.03e+01    -  7.02e-01 1.00e+00f  1
   6  2.3673752e+00 4.22e-02 1.13e+02   0.7 4.99e+00    -  9.38e-01 1.00e+00f  1
   7  2.3862475e+00 3.37e-03 1.85e+00  -0.3 5.75e-01    -  9.75e-01 1.00e+00h  1
   8  2.3220433e+00 3.97e-03 1.06e+00  -2.1 1.77e+00    -  9.67e-01 1.00e+00h  1
   9  2.3063268e+00 5.90e-05 3.16e-02  -2.8 3.06e-01    -  9.98e-01 1.00e+00h  1
iter    objective    inf_pr   inf_du lg(mu)  ||d||  lg(rg) alpha_du alpha_pr  ls
  10  1.9722579e+00 1.46e-02 7.24e-02  -2.5 1.16e+01    -  1.00e+00 5.27e-01f  1
  11  1.8957484e+00 1.83e-02 1.57e-02  -3.2 2.15e+00    -  9.99e-01 1.00e+00h  1
  12  1.6352496e+00 4.97e-01 1.09e-01  -2.0 3.51e+01    -  1.69e-01 4.08e-01f  1
  13  1.2859892e+00 8.72e-01 4.15e-02  -2.3 5.24e+01    -  3.82e-01 2.92e-01h  1
  14  1.2690640e+00 3.65e-01 5.33e-02  -2.5 1.20e+01    -  5.66e-01 4.93e-01h  1
  15  1.4675803e+00 1.26e-01 3.69e-01  -2.3 3.58e+00    -  5.41e-01 1.00e+00h  1
  16  1.4828399e+00 9.12e-02 1.22e-02  -2.1 5.78e+00    -  1.00e+00 1.00e+00h  1
  17  1.4708121e+00 1.97e-02 1.42e-02  -2.2 3.62e+00    -  1.00e+00 1.00e+00h  1
  18  1.2883927e+00 6.31e-01 1.02e-01  -3.1 1.32e+01    -  5.54e-01 9.99e-01h  1
  19  1.3542116e+00 1.95e-01 1.58e-01  -2.6 7.92e+00    -  3.99e-01 1.00e+00h  1
iter    objective    inf_pr   inf_du lg(mu)  ||d||  lg(rg) alpha_du alpha_pr  ls
  20  1.5480515e+00 2.05e-01 1.56e-02  -2.0 1.14e+01    -  8.43e-01 8.92e-01H  1
  21  1.3217020e+00 3.40e-01 1.52e-02  -2.2 1.05e+01    -  9.49e-01 1.00e+00h  1
  22  1.1365785e+00 6.11e-01 3.88e-01  -8.2 1.12e+01    -  3.39e-01 1.00e+00h  1
  23  1.3519410e+00 1.63e-01 1.52e-02  -2.1 8.46e+00    -  1.00e+00 1.00e+00h  1
  24  1.2681095e+00 7.34e-02 2.19e-01  -8.1 5.69e+00    -  4.89e-01 1.00e+00h  1
  25  1.2956835e+00 1.46e-02 6.41e-03  -2.4 5.60e+00    -  8.97e-01 1.00e+00h  1
  26  1.2200359e+00 4.97e-02 1.22e-01  -3.8 3.97e+00    -  6.57e-01 1.00e+00h  1
  27  1.2430512e+00 1.45e-02 6.22e-03  -3.2 3.69e+00    -  9.94e-01 1.00e+00h  1
  28  1.2403050e+00 3.64e-03 5.87e-03  -3.8 2.04e+00    -  9.85e-01 1.00e+00h  1
  29  1.2386958e+00 5.53e-01 1.05e-02  -3.1 3.02e+00    -  8.04e-01 1.00e+00h  1
iter    objective    inf_pr   inf_du lg(mu)  ||d||  lg(rg) alpha_du alpha_pr  ls
  30  1.2203124e+00 9.04e-01 5.65e-03  -3.5 2.54e+00    -  9.05e-01 1.00e+00h  1
  31  1.2303116e+00 1.01e+00 9.95e-03  -3.2 2.66e+00    -  7.81e-01 1.00e+00h  1
  32  1.2382452e+00 5.65e-01 4.63e-03  -3.4 1.95e+00    -  5.64e-01 5.68e-01h  1
  33  1.2326819e+00 2.69e-01 5.87e-03  -3.1 3.21e+00    -  8.04e-01 1.00e+00h  1
  34  1.2414994e+00 1.33e-02 8.33e-03  -3.2 3.81e+00    -  1.00e+00 1.00e+00h  1
  35  1.2315896e+00 3.35e+00 5.57e-03  -3.2 3.60e+00    -  6.09e-01 8.02e-01h  1
  36  1.2294347e+00 4.43e-01 6.23e-03  -3.2 2.32e+00    -  5.97e-01 1.00e+00h  1
  37  1.2320863e+00 2.06e-03 6.50e-03  -3.8 1.14e+00    -  1.00e+00 1.00e+00h  1
  38  1.2418536e+00 4.96e-03 5.40e-03  -3.2 2.18e+00    -  9.95e-01 1.00e+00h  1
  39  1.2355397e+00 2.41e+00 4.94e-03  -3.3 2.87e+00    -  1.00e+00 1.00e+00h  1
iter    objective    inf_pr   inf_du lg(mu)  ||d||  lg(rg) alpha_du alpha_pr  ls
  40  1.2362151e+00 2.07e+00 4.19e-03  -3.3 2.63e+00    -  5.27e-01 1.91e-01h  2
  41  1.2128618e+00 2.72e-02 1.06e-02  -3.3 6.84e+00    -  5.17e-01 3.10e-01h  1
  42  1.2282966e+00 5.13e-02 4.89e-03  -3.4 2.47e+00    -  1.00e+00 1.00e+00h  1
  43  1.2272544e+00 4.11e-02 4.14e-03  -4.2 1.17e+00    -  9.89e-01 1.00e+00h  1
  44  1.2270152e+00 8.64e-04 1.90e-03  -3.9 2.08e-01    -  1.00e+00 1.00e+00h  1
  45  1.2243825e+00 7.80e-02 1.46e-03  -4.3 4.35e-01    -  1.00e+00 1.00e+00h  1
  46  1.2228378e+00 2.43e-03 2.52e-03  -4.1 7.55e-01    -  1.00e+00 1.00e+00h  1
  47  1.2196253e+00 1.86e-01 2.50e-03  -4.7 3.95e-01    -  1.00e+00 1.00e+00h  1
  48  1.2205095e+00 3.01e-02 4.43e-04  -4.7 1.44e-01    -  1.00e+00 1.00e+00h  1
  49  1.2199909e+00 2.87e-03 1.60e-03  -5.4 2.37e-01    -  1.00e+00 1.00e+00h  1
iter    objective    inf_pr   inf_du lg(mu)  ||d||  lg(rg) alpha_du alpha_pr  ls
  50  1.2196119e+00 6.72e-04 1.14e-03  -4.8 3.09e-01    -  1.00e+00 1.00e+00h  1
  51  1.2188655e+00 1.73e-02 7.79e-04  -5.2 1.90e-01    -  1.00e+00 1.00e+00h  1
  52  1.2184721e+00 1.04e-02 1.00e-03  -5.6 2.52e-01    -  1.00e+00 1.00e+00h  1
  53  1.2178892e+00 2.50e-03 2.26e-03  -5.9 1.38e-01    -  1.00e+00 1.00e+00h  1
  54  1.2172483e+00 1.62e-03 8.84e-04  -6.5 1.34e-01    -  1.00e+00 1.00e+00h  1
  55  1.2171660e+00 1.81e-02 9.91e-04  -6.7 5.15e-02    -  1.00e+00 1.00e+00h  1
  56  1.2171539e+00 2.76e-03 4.31e-04  -6.4 4.51e-02    -  1.00e+00 1.00e+00h  1
  57  1.2171744e+00 5.88e-04 2.92e-04  -7.4 2.84e-02    -  1.00e+00 1.00e+00h  1
  58  1.2170341e+00 4.89e-04 5.63e-04  -7.5 1.03e-01    -  1.00e+00 1.00e+00h  1
  59  1.2165847e+00 2.72e-04 2.36e-04  -8.6 9.87e-02    -  1.00e+00 1.00e+00h  1
iter    objective    inf_pr   inf_du lg(mu)  ||d||  lg(rg) alpha_du alpha_pr  ls
  60  1.2163200e+00 5.69e-04 6.55e-04  -8.6 5.43e-02    -  1.00e+00 1.00e+00h  1
  61  1.2162980e+00 8.18e-06 4.27e-04  -9.6 4.98e-02    -  1.00e+00 1.00e+00H  1
  62  1.2162781e+00 1.03e-03 3.94e-04 -10.0 5.77e-02    -  1.00e+00 1.00e+00h  1
  63  1.2161937e+00 3.83e-04 1.79e-04 -11.0 1.45e-02    -  1.00e+00 1.00e+00h  1
  64  1.2161133e+00 1.99e-04 4.82e-04 -11.0 3.95e-02    -  1.00e+00 1.00e+00h  1
  65  1.2159249e+00 1.10e-03 4.54e-04 -11.0 4.10e-02    -  1.00e+00 1.00e+00h  1
  66  1.2158077e+00 1.28e-03 3.91e-04 -11.0 4.40e-02    -  1.00e+00 1.00e+00h  1
  67  1.2159110e+00 1.07e-04 1.28e-04 -11.0 5.14e-02    -  1.00e+00 1.00e+00h  1
  68  1.2159077e+00 9.35e-05 1.05e-04 -11.0 1.64e-02    -  1.00e+00 1.00e+00h  1
  69  1.2158507e+00 4.65e-05 1.15e-04 -11.0 1.84e-02    -  1.00e+00 1.00e+00h  1
iter    objective    inf_pr   inf_du lg(mu)  ||d||  lg(rg) alpha_du alpha_pr  ls
  70  1.2158582e+00 4.96e-05 1.59e-04 -11.0 1.63e-02    -  1.00e+00 1.00e+00h  1
  71  1.2158668e+00 3.05e-07 1.03e-04 -11.0 9.41e-03    -  1.00e+00 1.00e+00H  1
  72  1.2158658e+00 6.48e-05 7.83e-05 -11.0 6.67e-03    -  1.00e+00 1.00e+00h  1
  73  1.2158554e+00 1.75e-05 8.02e-05 -11.0 5.48e-03    -  1.00e+00 1.00e+00h  1
  74  1.2158484e+00 2.76e-05 1.98e-05 -11.0 7.57e-03    -  1.00e+00 1.00e+00h  1
  75  1.2158337e+00 1.85e-04 2.26e-04 -11.0 3.96e-02    -  1.00e+00 1.00e+00h  1
  76  1.2157360e+00 1.57e-04 1.45e-04 -11.0 1.88e-02    -  1.00e+00 1.00e+00h  1
  77  1.2156799e+00 1.12e-04 1.19e-04 -11.0 2.13e-02    -  1.00e+00 1.00e+00h  1
  78  1.2157811e+00 6.86e-07 3.04e-04 -11.0 1.76e-02    -  1.00e+00 1.00e+00H  1
  79  1.2157754e+00 1.46e-04 2.73e-05 -11.0 2.46e-02    -  1.00e+00 1.00e+00h  1
iter    objective    inf_pr   inf_du lg(mu)  ||d||  lg(rg) alpha_du alpha_pr  ls
  80  1.2157271e+00 4.38e-05 2.15e-04 -11.0 1.10e-02    -  1.00e+00 1.00e+00h  1
  81  1.2157115e+00 3.42e-05 6.08e-06 -11.0 8.71e-03    -  1.00e+00 1.00e+00h  1
  82  1.2157222e+00 1.11e-06 4.24e-06 -11.0 8.72e-04    -  1.00e+00 1.00e+00h  1
  83  1.2157215e+00 5.65e-05 1.32e-04 -11.0 8.38e-02    -  1.00e+00 1.00e+00h  1
  84  1.2156828e+00 1.02e-03 7.19e-04 -11.0 1.87e-01    -  1.00e+00 1.00e+00h  1
  85  1.2156093e+00 1.17e-03 4.07e-04 -11.0 6.90e-02    -  1.00e+00 1.00e+00h  1
  86  1.2156415e+00 1.03e-03 3.40e-04 -11.0 6.38e-02    -  1.00e+00 1.00e+00h  1
  87  1.2156577e+00 5.92e-04 3.06e-04 -11.0 5.75e-02    -  1.00e+00 1.00e+00h  1
  88  1.2156672e+00 5.88e-05 1.06e-04 -11.0 2.87e-02    -  1.00e+00 1.00e+00h  1
  89  1.2156907e+00 6.44e-05 2.86e-04 -11.0 2.97e-02    -  1.00e+00 1.00e+00h  1
iter    objective    inf_pr   inf_du lg(mu)  ||d||  lg(rg) alpha_du alpha_pr  ls
  90  1.2156791e+00 5.12e-05 1.00e-04 -11.0 2.06e-02    -  1.00e+00 1.00e+00h  1
  91  1.2156872e+00 2.39e-05 3.13e-05 -11.0 1.69e-02    -  1.00e+00 1.00e+00h  1
  92  1.2157039e+00 1.30e-07 3.18e-05 -11.0 6.76e-03    -  1.00e+00 1.00e+00H  1
  93  1.2157030e+00 1.66e-05 1.85e-05 -11.0 6.99e-03    -  1.00e+00 1.00e+00h  1
  94  1.2156978e+00 3.08e-06 9.46e-06 -11.0 1.20e-03    -  1.00e+00 1.00e+00h  1
  95  1.2156994e+00 5.14e-06 1.02e-05 -11.0 1.03e-03    -  1.00e+00 1.00e+00h  1
  96  1.2157859e+00 2.90e-07 1.33e-04 -11.0 1.78e-02    -  1.00e+00 1.00e+00H  1
  97  1.2157848e+00 5.41e-05 1.62e-04 -11.0 1.89e-02    -  1.00e+00 1.00e+00h  1
  98  1.2157324e+00 2.68e-07 4.63e-05 -11.0 2.12e-02    -  1.00e+00 1.00e+00H  1
  99  1.2157319e+00 4.96e-05 1.23e-04 -11.0 2.12e-02    -  1.00e+00 1.00e+00h  1
iter    objective    inf_pr   inf_du lg(mu)  ||d||  lg(rg) alpha_du alpha_pr  ls
 100  1.2157322e+00 4.92e-05 1.22e-04 -11.0 1.93e-02    -  1.00e+00 7.81e-03h  8
 101  1.2157888e+00 8.94e-08 3.70e-05 -11.0 2.19e-02    -  1.00e+00 1.00e+00H  1
 102  1.2157116e+00 1.66e-06 1.35e-04 -11.0 2.20e-02    -  1.00e+00 1.00e+00H  1
 103  1.2157072e+00 7.17e-04 3.29e-04 -11.0 3.22e-02    -  1.00e+00 1.00e+00h  1
 104  1.2158398e+00 5.32e-09 3.79e-05 -11.0 1.94e-02    -  1.00e+00 1.00e+00H  1
 105  1.2158354e+00 7.77e-05 1.78e-04 -11.0 3.44e-02    -  1.00e+00 1.00e+00h  1
 106  1.2157707e+00 2.57e-04 2.15e-04 -11.0 2.17e-02    -  1.00e+00 1.00e+00h  1
 107  1.2156987e+00 2.46e-04 1.43e-04 -11.0 3.55e-02    -  1.00e+00 1.00e+00h  1
 108  1.2158628e+00 1.47e-06 9.10e-04 -11.0 5.70e-02    -  1.00e+00 1.00e+00H  1
 109  1.2157703e+00 1.34e-06 4.65e-05 -11.0 4.90e-02    -  1.00e+00 1.00e+00H  1
iter    objective    inf_pr   inf_du lg(mu)  ||d||  lg(rg) alpha_du alpha_pr  ls
 110  1.2157700e+00 6.21e-05 1.21e-04 -11.0 1.05e-02    -  1.00e+00 1.00e+00h  1
 111  1.2157702e+00 6.02e-05 1.18e-04 -11.0 7.92e-03    -  1.00e+00 3.12e-02h  6
 112  1.2157703e+00 5.93e-05 1.16e-04 -11.0 7.21e-03    -  1.00e+00 1.56e-02h  7
 113  1.2157703e+00 5.90e-05 1.15e-04 -11.0 7.15e-03    -  1.00e+00 3.91e-03h  9
 114  1.2157703e+00 5.90e-05 1.15e-04 -11.0 7.16e-03    -  1.00e+00 4.88e-04h 12
 115  1.2157764e+00 3.18e-05 4.73e-06 -11.0 7.11e-03    -  1.00e+00 1.00e+00s 22
 116  1.2157742e+00 2.74e-07 3.80e-06 -11.0 2.90e-04    -  1.00e+00 0.00e+00S 22
 117  1.2157742e+00 1.68e-07 6.68e-07 -11.0 9.62e-05    -  1.00e+00 1.00e+00h  1
 118  1.2157742e+00 6.72e-07 3.83e-06 -11.0 8.37e-04    -  1.00e+00 1.00e+00h  1
 119  1.2157765e+00 6.48e-10 7.41e-06 -11.0 3.95e-03    -  1.00e+00 1.00e+00H  1
iter    objective    inf_pr   inf_du lg(mu)  ||d||  lg(rg) alpha_du alpha_pr  ls
 120  1.2157765e+00 9.77e-06 3.23e-05 -11.0 3.47e-03    -  1.00e+00 1.00e+00h  1

Number of Iterations....: 120

                                   (scaled)                 (unscaled)
Objective...............:   1.2157765153753173e+00    1.2157765153753173e+00
Dual infeasibility......:   3.2285192660896724e-05    3.2285192660896724e-05
Constraint violation....:   9.7721041662592167e-06    9.7721041662592167e-06
Variable bound violation:   3.0944179663094928e-08    3.0944179663094928e-08
Complementarity.........:   1.0000000514921102e-11    1.0000000514921102e-11
Overall NLP error.......:   3.2285192660896724e-05    3.2285192660896724e-05


Number of objective function evaluations             = 196
Number of objective gradient evaluations             = 121
Number of equality constraint evaluations            = 196
Number of inequality constraint evaluations          = 196
Number of equality constraint Jacobian evaluations   = 121
Number of inequality constraint Jacobian evaluations = 121
Number of Lagrangian Hessian evaluations             = 0
Total seconds in IPOPT                               = 95.954

EXIT: Maximum Number of Iterations Exceeded.
